#************************************************************************************
#*                  Generated by cif2cell 1.2.10 2018-10-27 10:03                   *
#*  T. Bjorkman, Comp. Phys. Commun. 182, 1183-1186 (2011). Please cite generously. *
#*                                                                                  *
#*                Data obtained from COD. Reference number : 9008853                *
#*                                    InSb   ()                                     *
#*              Wyckoff, R. W. G., Crystal Structures 1, 85-237 (1963)              *
#************************************************************************************

&SYSTEM
  ibrav = 0
  A =    6.47820
  nat = 2
  ntyp = 2
/
CELL_PARAMETERS {alat}
  0.500000000000000   0.500000000000000   0.000000000000000 
  0.500000000000000   0.000000000000000   0.500000000000000 
  0.000000000000000   0.500000000000000   0.500000000000000 
ATOMIC_SPECIES
  Sb  121.76000  Sb.pbe-mt_fhi.UPF
  In  114.81800  In.pbe-mt_fhi.UPF
ATOMIC_POSITIONS {crystal}
Sb   0.250000000000000   0.250000000000000   0.250000000000000 
In   0.000000000000000   0.000000000000000   0.000000000000000 

# k-space resolution ~0.2/A.
K_POINTS automatic
8 8 8  0 0 0
