&CONTROL
                   title = 'CaMgSn'
             calculation = 'scf'
            restart_mode = 'from_scratch'
                  outdir = './outdir'
              pseudo_dir = '/home/rajeshprashanth/pseudo'
                 tstress = .true.
                 tprnfor = .true.
           etot_conv_thr = 1.0D-10
           forc_conv_thr = 1.0D-8
/

&SYSTEM
		   ibrav = 0
		       A = 7.47520
		     nat = 12
		    ntyp = 3
		 ecutwfc = ECUTWFC
/

&ELECTRONS
                conv_thr = 1.0D-10
        diago_cg_maxiter = 5000
         diagonalization = 'cg'
/

&IONS
            ion_dynamics = 'bfgs'
/

&CELL
                   press = 0
          press_conv_thr = 0.1D0
/

CELL_PARAMETERS {alat}
1.000000000000000   0.000000000000000   0.000000000000000
0.000000000000000   0.592251712328767   0.000000000000000
0.000000000000000   0.000000000000000   1.112331442636986

ATOMIC_SPECIES
Mg   24.30500  PSEUDO_1
Ca   40.07800  PSEUDO_2
Sn   118.7100  PSEUDO_3

ATOMIC_POSITIONS {crystal}
Ca   0.019450000000000   0.250000000000000   0.680770000000000
Ca   0.480550000000000   0.750000000000000   0.180770000000000
Ca   0.980550000000000   0.750000000000000   0.319230000000000
Ca   0.519450000000000   0.250000000000000   0.819230000000000
Sn   0.270730000000000   0.250000000000000   0.385650000000000
Sn   0.229270000000000   0.750000000000000   0.885650000000000
Sn   0.729270000000000   0.750000000000000   0.614350000000000
Sn   0.770730000000000   0.250000000000000   0.114350000000000
Mg   0.144230000000000   0.250000000000000   0.063780000000000
Mg   0.355770000000000   0.750000000000000   0.563780000000000
Mg   0.855770000000000   0.750000000000000   0.936220000000000
Mg   0.644230000000000   0.250000000000000   0.436220000000000

K_POINTS automatic
4 7 4  0 0 0    
